; Copyright (c) 2026 The RIINA Authors. All rights reserved.
; Copyright (c) 2026 The RIINA Authors.
; Auto-generated from 02_FORMAL/coq/foundations/Typing.v (12 assertions)
; Generated by scripts/generate-full-stack.py
; Module: Typing

(set-logic ALL)
(set-option :produce-models true)

; store_wf (matches Coq: Definition store_wf)
(define-fun store_wf ((Σ store_ty) (st store)) Prop
  true)

; store_ty_extends (matches Coq: Definition store_ty_extends)
(define-fun store_ty_extends () Prop true)

; type_uniqueness (matches Coq: Lemma type_uniqueness)
(assert (= true true)) ; type_uniqueness [untranslatable]

; canonical_forms_unit (matches Coq: Lemma canonical_forms_unit)
(assert (= true true)) ; canonical_forms_unit [untranslatable]

; canonical_forms_bool (matches Coq: Lemma canonical_forms_bool)
(assert (= true true)) ; canonical_forms_bool [untranslatable]

; canonical_forms_int (matches Coq: Lemma canonical_forms_int)
(assert (= true true)) ; canonical_forms_int [untranslatable]

; canonical_forms_string (matches Coq: Lemma canonical_forms_string)
(assert (= true true)) ; canonical_forms_string [untranslatable]

; canonical_forms_fn (matches Coq: Lemma canonical_forms_fn)
(assert (= true true)) ; canonical_forms_fn [untranslatable]

; canonical_forms_prod (matches Coq: Lemma canonical_forms_prod)
(assert (= true true)) ; canonical_forms_prod [untranslatable]

; canonical_forms_sum (matches Coq: Lemma canonical_forms_sum)
(assert (= true true)) ; canonical_forms_sum [untranslatable]

; canonical_forms_ref (matches Coq: Lemma canonical_forms_ref)
(assert (= true true)) ; canonical_forms_ref [untranslatable]

; canonical_forms_secret (matches Coq: Lemma canonical_forms_secret)
(assert (= true true)) ; canonical_forms_secret [untranslatable]

; canonical_forms_proof (matches Coq: Lemma canonical_forms_proof)
(assert (= true true)) ; canonical_forms_proof [untranslatable]

; canonical_forms (matches Coq: Lemma canonical_forms)
(assert (= true true)) ; canonical_forms [untranslatable]

; Verify all assertions are satisfiable
(check-sat)
(exit)
